(set-logic QF_SLIA)
(declare-const result String)
(declare-const attack String)
(declare-const prefix RegLan)
(declare-const infix RegLan)
(declare-const postfix RegLan)
(declare-const postfixs String)

(assert (str.in_re attack (re.++ prefix ((_ re.loop 32 32) infix) postfix)))
(assert (= prefix 
     (str.to_re "\x22")
))
(assert (= infix 
         (re.++  (re.++  (str.to_re "\x26")  (re.++ "" (re.* "" ))))  (re.++  (re.++ (re.+  (re.union  (re.++  (str.to_re "\x5c\x5c")  (re.union  (re.union  (str.to_re "\x0c") (re.union  (str.to_re "\x20") (re.union  (str.to_re "\x0a") (re.union  (str.to_re "\x0d") (re.union  (str.to_re "\x09")  (str.to_re "\x0b"))))))  (re.union  (str.to_re "\x0c") (re.union  (str.to_re "\x20") (re.union  (str.to_re "\x0a") (re.union  (str.to_re "\x0d") (re.union  (str.to_re "\x09")  (str.to_re "\x0b"))))))))  (re.++ (re.opt  (re.union  (str.to_re "\x5c\x22")  (str.to_re "\x27")) )  (str.to_re "\x5c\x5c"))) ) (re.+  (re.union  (re.++  (str.to_re "\x5c\x5c")  (re.union  (re.union  (str.to_re "\x0c") (re.union  (str.to_re "\x20") (re.union  (str.to_re "\x0a") (re.union  (str.to_re "\x0d") (re.union  (str.to_re "\x09")  (str.to_re "\x0b"))))))  (re.union  (str.to_re "\x0c") (re.union  (str.to_re "\x20") (re.union  (str.to_re "\x0a") (re.union  (str.to_re "\x0d") (re.union  (str.to_re "\x09")  (str.to_re "\x0b"))))))))  (re.++  (str.to_re "\x5c\x24") (re.++  (str.to_re "\x5c\x7b") (re.++ (re.+  (re.union  (re.union  (str.to_re "\x5c\x22") (re.union  (str.to_re "\x27")  (str.to_re "\x5c\x7d")))  (re.++  (re.union  (str.to_re "\x5c\x22")  (str.to_re "\x27")) (re.++ (re.*  (re.union  (re.++ (re.opt  (re.union  (str.to_re "\x5c\x22")  (str.to_re "\x27")) )  (str.to_re "\x5c\x5c"))  (re.++  (str.to_re "\x5c\x5c")  (re.union  (re.union  (str.to_re "\x0c") (re.union  (str.to_re "\x20") (re.union  (str.to_re "\x0a") (re.union  (str.to_re "\x0d") (re.union  (str.to_re "\x09")  (str.to_re "\x0b"))))))  (re.union  (str.to_re "\x0c") (re.union  (str.to_re "\x20") (re.union  (str.to_re "\x0a") (re.union  (str.to_re "\x0d") (re.union  (str.to_re "\x09")  (str.to_re "\x0b"))))))))) )  (re.union  (str.to_re "\x5c\x22")  (str.to_re "\x27"))))) )  (str.to_re "\x5c\x7d"))))) )) (re.++  (str.to_re "\x26") (re.++ (re.+  (re.union  (re.++  (str.to_re "\x5c\x5c")  (re.union  (re.union  (str.to_re "\x0c") (re.union  (str.to_re "\x20") (re.union  (str.to_re "\x0a") (re.union  (str.to_re "\x0d") (re.union  (str.to_re "\x09")  (str.to_re "\x0b"))))))  (re.union  (str.to_re "\x0c") (re.union  (str.to_re "\x20") (re.union  (str.to_re "\x0a") (re.union  (str.to_re "\x0d") (re.union  (str.to_re "\x09")  (str.to_re "\x0b"))))))))  (re.++  (str.to_re "\x5c\x24") (re.++  (str.to_re "\x5c\x7b") (re.++ (re.+  (re.union  (re.union  (str.to_re "\x5c\x22") (re.union  (str.to_re "\x27")  (str.to_re "\x5c\x7d")))  (re.++  (re.union  (str.to_re "\x5c\x22")  (str.to_re "\x27")) (re.++ (re.*  (re.union  (re.++ (re.opt  (re.union  (str.to_re "\x5c\x22")  (str.to_re "\x27")) )  (str.to_re "\x5c\x5c"))  (re.++  (str.to_re "\x5c\x5c")  (re.union  (re.union  (str.to_re "\x0c") (re.union  (str.to_re "\x20") (re.union  (str.to_re "\x0a") (re.union  (str.to_re "\x0d") (re.union  (str.to_re "\x09")  (str.to_re "\x0b"))))))  (re.union  (str.to_re "\x0c") (re.union  (str.to_re "\x20") (re.union  (str.to_re "\x0a") (re.union  (str.to_re "\x0d") (re.union  (str.to_re "\x09")  (str.to_re "\x0b"))))))))) )  (re.union  (str.to_re "\x5c\x22")  (str.to_re "\x27"))))) )  (str.to_re "\x5c\x7d"))))) ) (re.++  (str.to_re "\x26") (re.++  (re.++  (str.to_re "\x5c\x24") (re.* re.allchar )) (re.++  (str.to_re "\x26")  (re.++ "" (re.* "" )))))))) 
))
(assert (= postfix 
         (re.++  (str.to_re "\x21") (re.++  (str.to_re "\x22") (re.++  (str.to_re "\x41") (re.++  (str.to_re "\x5c\x21") (re.++  (str.to_re "\x41") (re.++  (str.to_re "\x21") (re.++  (str.to_re "\x5c\x21") (re.++  (str.to_re "\x22") (re.++  (str.to_re "\x41") (re.++  (str.to_re "\x5c\x21") (re.++  (str.to_re "\x41") (re.++  (str.to_re "\x5c\x21") (re.++  (str.to_re "\x22") (re.++  (str.to_re "\x41") (re.++  (str.to_re "\x5c\x21") (re.++  (str.to_re "\x41") (re.++  (str.to_re "\x21") (re.++  (str.to_re "\x5c\x21") (re.++  (str.to_re "\x22") (re.++  (str.to_re "\x41") (re.++  (str.to_re "\x5c\x21") (re.++  (str.to_re "\x41")  (str.to_re "\x5c\x21")))))))))))))))))))))))
))
(assert (str.in_re postfixs postfix))
(assert (>= (str.len postfixs) 1))
(assert (= result (str.++ attack postfixs)))
(check-sat)
(get-model)